w = 20;
n = 14;
measures = [|4, 17,
|3, 17,
|4, 11,
|4, 9,
|3, 11,
|3, 10,
|3, 9,
|3, 8,
|3, 7,
|3, 6,
|3, 5,
|3, 4,
|4, 3,
|3, 3,
|];
initial_x = [0, 4, 7, 11, 15, 0, 3, 6, 9, 12, 15, 0, 3, 7];
initial_y = [0, 0, 0, 0, 0, 17, 17, 17, 17, 17, 17, 27, 27, 27];